(set-logic QF_S)
(declare-fun var_0xINPUT_27439 () String)
(assert (and (= (len var_0xINPUT_27439) 0) (= (len var_0xINPUT_27439) 0) (not (= var_0xINPUT_27439 "3s71lxYG6e"))))
(check-sat var_0xINPUT_27439)